certificates/rado_a15_c288_N37.drat
-34 -35 18 -37 0
19 18 -37 0
18 -37 0
d 19 18 -37 0
-18 -37 0
d -18 -19 -37 0
-37 0
19 0
-16 0
-22 0
-18 0
36 0
34 0
4 0
-33 0
-31 0
-1 0
-7 0
15 0
13 0
25 0
-12 0
-10 0
-28 0
-20 0
24 0
30 0
0
